&control
    prefix = 'carbon',
    pseudo_dir = '.',
    outdir = '.',
/
&system
    ibrav =2,
    celldm(1) = 6.8,
    nat = 1,
    ntyp = 1,
    occupations =  'smearing' ,
    ecutwfc = 20.0,
/
