&control
    prefix = 'carbon',
    pseudo_dir = '.',
    outdir = '.',
/
&system
    ibrav =2,
    celldm(1) = 6.8,
    nat = 1,
    ntyp = 1,
    occupations =  'smearing', ,
    smearing =     ecutwfc = 20.0,
/
&electrons
/
ATOMIC_SPECIES
 ca 65.0 Cu.pbesol-dn-kjpaw_psl.1.0.0.UPF
ATOMIC POSITIONS
 Cu 0.00 0.00 0.00
K_POINTS
 8 8 8 0 0 0
