&CONTROL 
    calculation = 'scf' 
    prefix = 'ScAl' 
    outdir = './temp' 
    pseudo_dir = '/Users/vinhtran/Documents/GitHub/DFT/pseudos' 
/ 
&SYSTEM
    ibrav = 1
    celldm(1) = 12.0
    nat = 8
    ntyp = 2 
    ecutwfc = 30.0 
    occupations = 'smearing' 
    degauss = 0.02
    smearing = 'gauss' 
/
&ELECTRONS 
/ 
&IONS
/
ATOMIC_SPECIES
    Sc  44.955908   Sc_ONCV_PBE-1.0.oncvpsp.upf
    Al  26.981538   Al.pbe-n-kjpaw_psl.1.0.0.UPF
ATOMIC_POSITIONS alat   
    Sc  0.00    0.00    0.00 
    Al  0.00    0.50    0.00
    Al  0.50    0.00    0.00
    Sc  0.50    0.50    0.00
    Al  0.00    0.00    0.50
    Sc  0.00    0.50    0.50
    Sc  0.50    0.00    0.50
    Al  0.50    0.50    0.50 
K_POINTS automatic 
    4   4   4   0   0   0 
