&CONTROL
/
&SYSTEM
   ntyp             = 2
   nat              = 34
   ibrav            = 0
/
&ELECTRONS
/
&IONS
/
&CELL
/

ATOMIC_SPECIES
Cu 63.546 None
N 14.007 None

K_POINTS gamma

CELL_PARAMETERS angstrom
10.21062192033375 0.00000000000000 0.00000000000000
5.10531096016687 8.84265797144727 0.00000000000000
0.00000000000000 0.00000000000000 22.08423447177455

ATOMIC_POSITIONS angstrom
Cu 0.0000000000 1.4737763286 10.0000000000  0 0 0
Cu 2.5526554801 1.4737763286 10.0000000000  0 0 0
Cu 5.1053109602 1.4737763286 10.0000000000  0 0 0
Cu 7.6579664403 1.4737763286 10.0000000000  0 0 0
Cu 1.2763277400 3.6844408214 10.0000000000  0 0 0
Cu 3.8289832201 3.6844408214 10.0000000000  0 0 0
Cu 6.3816387002 3.6844408214 10.0000000000  0 0 0
Cu 8.9342941803 3.6844408214 10.0000000000  0 0 0
Cu 2.5526554801 5.8951053143 10.0000000000  0 0 0
Cu 5.1053109602 5.8951053143 10.0000000000  0 0 0
Cu 7.6579664403 5.8951053143 10.0000000000  0 0 0
Cu 10.2106219203 5.8951053143 10.0000000000  0 0 0
Cu 3.8289832201 8.1057698072 10.0000000000  0 0 0
Cu 6.3816387002 8.1057698072 10.0000000000  0 0 0
Cu 8.9342941803 8.1057698072 10.0000000000  0 0 0
Cu 11.4869496604 8.1057698072 10.0000000000  0 0 0
Cu 0.0000000000 0.0000000000 12.0842344718  0 0 0
Cu 2.5526554801 0.0000000000 12.0842344718  0 0 0
Cu 5.1053109602 0.0000000000 12.0842344718  0 0 0
Cu 7.6579664403 0.0000000000 12.0842344718  0 0 0
Cu 1.2763277400 2.2106644929 12.0842344718  0 0 0
Cu 3.8289832201 2.2106644929 12.0842344718  0 0 0
Cu 6.3816387002 2.2106644929 12.0842344718  0 0 0
Cu 8.9342941803 2.2106644929 12.0842344718  0 0 0
Cu 2.5526554801 4.4213289857 12.0842344718  0 0 0
Cu 5.1053109602 4.4213289857 12.0842344718  0 0 0
Cu 7.6579664403 4.4213289857 12.0842344718  0 0 0
Cu 10.2106219203 4.4213289857 12.0842344718  0 0 0
Cu 3.8289832201 6.6319934786 12.0842344718  0 0 0
Cu 6.3816387002 6.6319934786 12.0842344718  0 0 0
Cu 8.9342941803 6.6319934786 12.0842344718  0 0 0
Cu 11.4869496604 6.6319934786 12.0842344718  0 0 0
N -0.0000000000 -0.0000000000 14.1420845717 
N -0.0000000000 0.0000000000 15.1889909183 

