&bands 
    prefix = 'gp' 
    outdir = './temp' 
    filband = 'bands.out' 
/

