&CONTROL 
    calculation = 'scf' 
    prefix = 'ScAl' 
    outdir = './temp' 
    pseudo_dir = '/Users/vinhtran/Documents/GitHub/DFT/pseudos' 
/ 
&SYSTEM
    ibrav = 1 
    celldm(1) = 7.5
    nat = 2 
    ntyp = 2 
    ecutwfc = 30.0 
    occupations = 'smearing' 
    degauss = 0.02
    smearing = 'gauss' 
/
&ELECTRONS 
/ 
&IONS
/
ATOMIC_SPECIES
    Sc  44.955908   Sc_ONCV_PBE-1.0.oncvpsp.upf
    Al  26.981538   Al.pbe-n-kjpaw_psl.1.0.0.UPF
ATOMIC_POSITIONS alat 
    Sc  0.00    0.00    0.00 
    Al  0.50    0.50    0.50 
K_POINTS automatic 
    2   2   2   0   0   0 
