 &dos
	prefix = 'gp',
	outdir = './temp', 
	fildos = 'graphene.dos' 
 /

